
        $ From http://www.csplib.org/Problems/prob009/data/helmut.pdf
        $ Problem number 78
        $ Sequence length : 25
        language ESSENCE' 1.0
        letting sizemaster be 309
        letting sizes be sequence(7,8,14,16,23,24,25,26,31,33,34,39,48,56,59,60,62,70,76,82,92,100,101,108,117)
        